p cnf 14 20
14 -12 2 0
-14 -9 -6 0
14 -4 -2 0
13 -12 -11 0
13 -9 -4 0
12 11 -7 0
12 9 -8 0
-12 9 -6 0
-12 -9 2 0
12 -8 1 0
12 6 -5 0
-11 -6 -5 0
10 -9 -1 0
10 -6 -5 0
-10 5 3 0
9 -5 3 0
-7 -4 3 0
-7 2 -1 0
-6 5 4 0
6 -5 3 0
